c Qdimacs file from skolem function generator
p cnf 342 986
a 247 248 250 251 252 253 254 255 256 257 258 259 260 261 262 263 264 265 266 267 268 269 270 271 272 273 274 275 276 277 278 279 280 281 282 283 284 285 286 287 288 289 290 291 292 293 294 295 296 297 298 299 300 301 302 303 304 305 306 307 308 309 310 311 0
e 249 312 313 314 315 316 317 318 319 320 321 322 323 324 325 326 327 328 329 330 331 332 333 334 335 336 337 338 339 340 341 1 2 3 4 5 6 7 8 9 10 11 12 13 14 15 16 17 18 19 20 21 22 23 24 25 26 27 28 29 30 31 32 33 34 35 36 37 38 39 40 41 42 43 44 45 46 47 48 49 50 51 52 53 54 55 56 57 58 59 60 61 62 63 64 65 66 67 68 69 70 71 72 73 74 75 76 77 78 79 80 81 82 83 84 85 86 87 88 89 90 91 92 93 94 95 96 97 98 99 100 101 102 103 104 105 106 107 108 109 110 111 112 113 114 115 116 117 118 119 120 121 122 123 124 125 126 127 128 129 130 131 132 133 134 135 136 137 138 139 140 141 142 143 144 145 146 147 148 149 150 151 152 153 154 155 156 157 158 159 160 161 162 163 164 165 166 167 168 169 170 171 172 173 174 175 176 177 178 179 180 181 182 183 184 185 186 187 188 189 190 191 192 193 194 195 196 197 198 199 200 201 202 203 204 205 206 207 208 209 210 211 212 213 214 215 216 217 218 219 220 221 222 223 224 225 226 227 228 229 230 231 232 233 234 235 236 237 238 239 240 241 242 243 244 245 246 342 0
4 5 7 -157 229 0
4 -5 -7 -157 229 0
-4 -229 0
-4 -5 7 0
-4 157 0
-4 5 -7 0
5 249 -6 0
5 -249 6 0
-5 -249 -6 0
-5 249 6 0
6 310 -311 0
6 -310 311 0
-6 -310 -311 0
-6 310 311 0
7 251 -67 0
7 -250 -251 67 0
7 250 -67 0
7 -8 67 0
-7 -250 -251 -67 0
-7 250 8 67 0
-7 251 8 67 0
8 250 -251 9 0
8 -250 251 9 0
-8 -9 0
-8 250 251 0
-8 -250 -251 0
9 252 10 0
9 253 10 0
-9 -10 0
-9 -252 -253 0
10 252 -253 11 0
10 -252 253 11 0
-10 -11 0
-10 252 253 0
-10 -252 -253 0
11 254 12 0
11 255 12 0
-11 -12 0
-11 -254 -255 0
12 254 -255 13 0
12 -254 255 13 0
-12 -13 0
-12 254 255 0
-12 -254 -255 0
13 256 14 0
13 257 14 0
-13 -14 0
-13 -256 -257 0
14 256 -257 15 0
14 -256 257 15 0
-14 -15 0
-14 256 257 0
-14 -256 -257 0
15 258 16 0
15 259 16 0
-15 -16 0
-15 -258 -259 0
16 258 -259 17 0
16 -258 259 17 0
-16 -17 0
-16 258 259 0
-16 -258 -259 0
17 260 18 0
17 261 18 0
-17 -18 0
-17 -260 -261 0
18 260 -261 19 0
18 -260 261 19 0
-18 -19 0
-18 260 261 0
-18 -260 -261 0
19 262 20 0
19 263 20 0
-19 -20 0
-19 -262 -263 0
20 262 -263 21 0
20 -262 263 21 0
-20 -21 0
-20 262 263 0
-20 -262 -263 0
21 264 22 0
21 265 22 0
-21 -22 0
-21 -264 -265 0
22 264 -265 23 0
22 -264 265 23 0
-22 -23 0
-22 264 265 0
-22 -264 -265 0
23 266 24 0
23 267 24 0
-23 -24 0
-23 -266 -267 0
24 266 -267 25 0
24 -266 267 25 0
-24 -25 0
-24 266 267 0
-24 -266 -267 0
25 268 26 0
25 269 26 0
-25 -26 0
-25 -268 -269 0
26 268 -269 27 0
26 -268 269 27 0
-26 -27 0
-26 268 269 0
-26 -268 -269 0
27 270 28 0
27 271 28 0
-27 -28 0
-27 -270 -271 0
28 270 -271 29 0
28 -270 271 29 0
-28 -29 0
-28 270 271 0
-28 -270 -271 0
29 272 30 0
29 273 30 0
-29 -30 0
-29 -272 -273 0
30 272 -273 31 0
30 -272 273 31 0
-30 -31 0
-30 272 273 0
-30 -272 -273 0
31 274 32 0
31 275 32 0
-31 -32 0
-31 -274 -275 0
32 274 -275 33 0
32 -274 275 33 0
-32 -33 0
-32 274 275 0
-32 -274 -275 0
33 276 34 0
33 277 34 0
-33 -34 0
-33 -276 -277 0
34 276 -277 35 0
34 -276 277 35 0
-34 -35 0
-34 276 277 0
-34 -276 -277 0
35 278 36 0
35 279 36 0
-35 -36 0
-35 -278 -279 0
36 278 -279 37 0
36 -278 279 37 0
-36 -37 0
-36 278 279 0
-36 -278 -279 0
37 280 38 0
37 281 38 0
-37 -38 0
-37 -280 -281 0
38 280 -281 39 0
38 -280 281 39 0
-38 -39 0
-38 280 281 0
-38 -280 -281 0
39 282 40 0
39 283 40 0
-39 -40 0
-39 -282 -283 0
40 282 -283 41 0
40 -282 283 41 0
-40 -41 0
-40 282 283 0
-40 -282 -283 0
41 284 42 0
41 285 42 0
-41 -42 0
-41 -284 -285 0
42 284 -285 43 0
42 -284 285 43 0
-42 -43 0
-42 284 285 0
-42 -284 -285 0
43 286 44 0
43 287 44 0
-43 -44 0
-43 -286 -287 0
44 286 -287 45 0
44 -286 287 45 0
-44 -45 0
-44 286 287 0
-44 -286 -287 0
45 288 46 0
45 289 46 0
-45 -46 0
-45 -288 -289 0
46 288 -289 47 0
46 -288 289 47 0
-46 -47 0
-46 288 289 0
-46 -288 -289 0
47 290 48 0
47 291 48 0
-47 -48 0
-47 -290 -291 0
48 290 -291 49 0
48 -290 291 49 0
-48 -49 0
-48 290 291 0
-48 -290 -291 0
49 292 50 0
49 293 50 0
-49 -50 0
-49 -292 -293 0
50 292 -293 51 0
50 -292 293 51 0
-50 -51 0
-50 292 293 0
-50 -292 -293 0
51 294 52 0
51 295 52 0
-51 -52 0
-51 -294 -295 0
52 294 -295 53 0
52 -294 295 53 0
-52 -53 0
-52 294 295 0
-52 -294 -295 0
53 296 54 0
53 297 54 0
-53 -54 0
-53 -296 -297 0
54 296 -297 55 0
54 -296 297 55 0
-54 -55 0
-54 296 297 0
-54 -296 -297 0
55 298 56 0
55 299 56 0
-55 -56 0
-55 -298 -299 0
56 298 -299 57 0
56 -298 299 57 0
-56 -57 0
-56 298 299 0
-56 -298 -299 0
57 300 58 0
57 301 58 0
-57 -58 0
-57 -300 -301 0
58 300 -301 59 0
58 -300 301 59 0
-58 -59 0
-58 300 301 0
-58 -300 -301 0
59 302 60 0
59 303 60 0
-59 -60 0
-59 -302 -303 0
60 302 -303 61 0
60 -302 303 61 0
-60 -61 0
-60 302 303 0
-60 -302 -303 0
61 304 62 0
61 305 62 0
-61 -62 0
-61 -304 -305 0
62 304 -305 63 0
62 -304 305 63 0
-62 -63 0
-62 304 305 0
-62 -304 -305 0
63 306 64 0
63 307 64 0
-63 -64 0
-63 -306 -307 0
64 306 -307 -65 0
64 -306 307 -65 0
-64 65 0
-64 306 307 0
-64 -306 -307 0
65 -308 -309 0
65 -309 -66 0
65 -308 -66 0
-65 308 66 0
-65 309 66 0
-65 308 309 0
66 -247 -248 0
-66 247 0
-66 248 0
67 -68 -155 0
-67 68 0
-67 155 0
68 -69 -153 0
-68 69 0
-68 153 0
69 -70 -151 0
-69 70 0
-69 151 0
70 -71 -149 0
-70 71 0
-70 149 0
71 -72 -147 0
-71 72 0
-71 147 0
72 -73 -145 0
-72 73 0
-72 145 0
73 -74 -143 0
-73 74 0
-73 143 0
74 -75 -141 0
-74 75 0
-74 141 0
75 -76 -139 0
-75 76 0
-75 139 0
76 -77 -137 0
-76 77 0
-76 137 0
77 -78 -135 0
-77 78 0
-77 135 0
78 -79 -133 0
-78 79 0
-78 133 0
79 -80 -131 0
-79 80 0
-79 131 0
80 -81 -129 0
-80 81 0
-80 129 0
81 -82 -127 0
-81 82 0
-81 127 0
82 -83 -125 0
-82 83 0
-82 125 0
83 -84 -123 0
-83 84 0
-83 123 0
84 -85 -121 0
-84 85 0
-84 121 0
85 -86 -119 0
-85 86 0
-85 119 0
86 -87 -117 0
-86 87 0
-86 117 0
87 -88 -115 0
-87 88 0
-87 115 0
88 -89 -113 0
-88 89 0
-88 113 0
89 -90 -111 0
-89 90 0
-89 111 0
90 -91 -109 0
-90 91 0
-90 109 0
91 -92 -107 0
-91 92 0
-91 107 0
92 -93 -105 0
-92 93 0
-92 105 0
93 -94 -103 0
-93 94 0
-93 103 0
94 -95 -101 0
-94 95 0
-94 101 0
95 -96 -98 0
-95 96 0
-95 98 0
96 97 -65 0
96 -97 65 0
-96 -97 -65 0
-96 97 65 0
97 306 -307 0
97 -306 307 0
-97 -306 -307 0
-97 306 307 0
98 248 -99 0
98 247 -99 0
-98 99 0
-98 -247 -248 0
99 -248 -100 0
99 -247 -100 0
-99 100 0
-99 247 248 0
100 308 -309 0
100 -308 309 0
-100 -308 -309 0
-100 308 309 0
101 -63 -102 0
101 63 102 0
-101 63 -102 0
-101 -63 102 0
102 304 -305 0
102 -304 305 0
-102 -304 -305 0
-102 304 305 0
103 -61 -104 0
103 61 104 0
-103 61 -104 0
-103 -61 104 0
104 302 -303 0
104 -302 303 0
-104 -302 -303 0
-104 302 303 0
105 -59 -106 0
105 59 106 0
-105 59 -106 0
-105 -59 106 0
106 300 -301 0
106 -300 301 0
-106 -300 -301 0
-106 300 301 0
107 -57 -108 0
107 57 108 0
-107 57 -108 0
-107 -57 108 0
108 298 -299 0
108 -298 299 0
-108 -298 -299 0
-108 298 299 0
109 -55 -110 0
109 55 110 0
-109 55 -110 0
-109 -55 110 0
110 296 -297 0
110 -296 297 0
-110 -296 -297 0
-110 296 297 0
111 -53 -112 0
111 53 112 0
-111 53 -112 0
-111 -53 112 0
112 294 -295 0
112 -294 295 0
-112 -294 -295 0
-112 294 295 0
113 -51 -114 0
113 51 114 0
-113 51 -114 0
-113 -51 114 0
114 292 -293 0
114 -292 293 0
-114 -292 -293 0
-114 292 293 0
115 -49 -116 0
115 49 116 0
-115 49 -116 0
-115 -49 116 0
116 290 -291 0
116 -290 291 0
-116 -290 -291 0
-116 290 291 0
117 -47 -118 0
117 47 118 0
-117 47 -118 0
-117 -47 118 0
118 288 -289 0
118 -288 289 0
-118 -288 -289 0
-118 288 289 0
119 -45 -120 0
119 45 120 0
-119 45 -120 0
-119 -45 120 0
120 286 -287 0
120 -286 287 0
-120 -286 -287 0
-120 286 287 0
121 -43 -122 0
121 43 122 0
-121 43 -122 0
-121 -43 122 0
122 284 -285 0
122 -284 285 0
-122 -284 -285 0
-122 284 285 0
123 -41 -124 0
123 41 124 0
-123 41 -124 0
-123 -41 124 0
124 282 -283 0
124 -282 283 0
-124 -282 -283 0
-124 282 283 0
125 -39 -126 0
125 39 126 0
-125 39 -126 0
-125 -39 126 0
126 280 -281 0
126 -280 281 0
-126 -280 -281 0
-126 280 281 0
127 -37 -128 0
127 37 128 0
-127 37 -128 0
-127 -37 128 0
128 278 -279 0
128 -278 279 0
-128 -278 -279 0
-128 278 279 0
129 -35 -130 0
129 35 130 0
-129 35 -130 0
-129 -35 130 0
130 276 -277 0
130 -276 277 0
-130 -276 -277 0
-130 276 277 0
131 -33 -132 0
131 33 132 0
-131 33 -132 0
-131 -33 132 0
132 274 -275 0
132 -274 275 0
-132 -274 -275 0
-132 274 275 0
133 -31 -134 0
133 31 134 0
-133 31 -134 0
-133 -31 134 0
134 272 -273 0
134 -272 273 0
-134 -272 -273 0
-134 272 273 0
135 -29 -136 0
135 29 136 0
-135 29 -136 0
-135 -29 136 0
136 270 -271 0
136 -270 271 0
-136 -270 -271 0
-136 270 271 0
137 -27 -138 0
137 27 138 0
-137 27 -138 0
-137 -27 138 0
138 268 -269 0
138 -268 269 0
-138 -268 -269 0
-138 268 269 0
139 -25 -140 0
139 25 140 0
-139 25 -140 0
-139 -25 140 0
140 266 -267 0
140 -266 267 0
-140 -266 -267 0
-140 266 267 0
141 -23 -142 0
141 23 142 0
-141 23 -142 0
-141 -23 142 0
142 264 -265 0
142 -264 265 0
-142 -264 -265 0
-142 264 265 0
143 -21 -144 0
143 21 144 0
-143 21 -144 0
-143 -21 144 0
144 262 -263 0
144 -262 263 0
-144 -262 -263 0
-144 262 263 0
145 -19 -146 0
145 19 146 0
-145 19 -146 0
-145 -19 146 0
146 260 -261 0
146 -260 261 0
-146 -260 -261 0
-146 260 261 0
147 -17 -148 0
147 17 148 0
-147 17 -148 0
-147 -17 148 0
148 258 -259 0
148 -258 259 0
-148 -258 -259 0
-148 258 259 0
149 -15 -150 0
149 15 150 0
-149 15 -150 0
-149 -15 150 0
150 256 -257 0
150 -256 257 0
-150 -256 -257 0
-150 256 257 0
151 -13 -152 0
151 13 152 0
-151 13 -152 0
-151 -13 152 0
152 254 -255 0
152 -254 255 0
-152 -254 -255 0
-152 254 255 0
153 -11 -154 0
153 11 154 0
-153 11 -154 0
-153 -11 154 0
154 252 -253 0
154 -252 253 0
-154 -252 -253 0
-154 252 253 0
155 -9 -156 0
155 9 156 0
-155 9 -156 0
-155 -9 156 0
156 250 -251 0
156 -250 251 0
-156 -250 -251 0
-156 250 251 0
157 158 160 162 -164 0
-157 164 0
-157 -162 0
-157 -158 0
-157 -160 0
158 313 -159 0
158 -313 159 0
-158 -313 -159 0
-158 313 159 0
159 69 -153 0
159 -69 153 0
-159 -69 -153 0
-159 69 153 0
160 314 -161 0
160 -314 161 0
-160 -314 -161 0
-160 314 161 0
161 70 -151 0
161 -70 151 0
-161 -70 -151 0
-161 70 151 0
162 315 -163 0
162 -315 163 0
-162 -315 -163 0
-162 315 163 0
163 71 -149 0
163 -71 149 0
-163 -71 -149 0
-163 71 149 0
164 165 167 -169 0
-164 169 0
-164 -167 0
-164 -165 0
165 316 -166 0
165 -316 166 0
-165 -316 -166 0
-165 316 166 0
166 72 -147 0
166 -72 147 0
-166 -72 -147 0
-166 72 147 0
167 317 -168 0
167 -317 168 0
-167 -317 -168 0
-167 317 168 0
168 73 -145 0
168 -73 145 0
-168 -73 -145 0
-168 73 145 0
169 170 172 -174 0
-169 174 0
-169 -172 0
-169 -170 0
170 318 -171 0
170 -318 171 0
-170 -318 -171 0
-170 318 171 0
171 74 -143 0
171 -74 143 0
-171 -74 -143 0
-171 74 143 0
172 319 -173 0
172 -319 173 0
-172 -319 -173 0
-172 319 173 0
173 75 -141 0
173 -75 141 0
-173 -75 -141 0
-173 75 141 0
174 175 177 -179 0
-174 179 0
-174 -177 0
-174 -175 0
175 320 -176 0
175 -320 176 0
-175 -320 -176 0
-175 320 176 0
176 76 -139 0
176 -76 139 0
-176 -76 -139 0
-176 76 139 0
177 321 -178 0
177 -321 178 0
-177 -321 -178 0
-177 321 178 0
178 77 -137 0
178 -77 137 0
-178 -77 -137 0
-178 77 137 0
179 180 182 184 -186 0
-179 186 0
-179 -184 0
-179 -180 0
-179 -182 0
180 322 -181 0
180 -322 181 0
-180 -322 -181 0
-180 322 181 0
181 78 -135 0
181 -78 135 0
-181 -78 -135 0
-181 78 135 0
182 323 -183 0
182 -323 183 0
-182 -323 -183 0
-182 323 183 0
183 79 -133 0
183 -79 133 0
-183 -79 -133 0
-183 79 133 0
184 324 -185 0
184 -324 185 0
-184 -324 -185 0
-184 324 185 0
185 80 -131 0
185 -80 131 0
-185 -80 -131 0
-185 80 131 0
186 187 189 -191 0
-186 191 0
-186 -189 0
-186 -187 0
187 325 -188 0
187 -325 188 0
-187 -325 -188 0
-187 325 188 0
188 81 -129 0
188 -81 129 0
-188 -81 -129 0
-188 81 129 0
189 326 -190 0
189 -326 190 0
-189 -326 -190 0
-189 326 190 0
190 82 -127 0
190 -82 127 0
-190 -82 -127 0
-190 82 127 0
191 192 194 -196 0
-191 196 0
-191 -194 0
-191 -192 0
192 327 -193 0
192 -327 193 0
-192 -327 -193 0
-192 327 193 0
193 83 -125 0
193 -83 125 0
-193 -83 -125 0
-193 83 125 0
194 328 -195 0
194 -328 195 0
-194 -328 -195 0
-194 328 195 0
195 84 -123 0
195 -84 123 0
-195 -84 -123 0
-195 84 123 0
196 197 199 -201 0
-196 201 0
-196 -199 0
-196 -197 0
197 329 -198 0
197 -329 198 0
-197 -329 -198 0
-197 329 198 0
198 85 -121 0
198 -85 121 0
-198 -85 -121 0
-198 85 121 0
199 330 -200 0
199 -330 200 0
-199 -330 -200 0
-199 330 200 0
200 86 -119 0
200 -86 119 0
-200 -86 -119 0
-200 86 119 0
201 202 204 -206 0
-201 206 0
-201 -204 0
-201 -202 0
202 331 -203 0
202 -331 203 0
-202 -331 -203 0
-202 331 203 0
203 87 -117 0
203 -87 117 0
-203 -87 -117 0
-203 87 117 0
204 332 -205 0
204 -332 205 0
-204 -332 -205 0
-204 332 205 0
205 88 -115 0
205 -88 115 0
-205 -88 -115 0
-205 88 115 0
206 207 209 -211 0
-206 211 0
-206 -209 0
-206 -207 0
207 333 -208 0
207 -333 208 0
-207 -333 -208 0
-207 333 208 0
208 89 -113 0
208 -89 113 0
-208 -89 -113 0
-208 89 113 0
209 334 -210 0
209 -334 210 0
-209 -334 -210 0
-209 334 210 0
210 90 -111 0
210 -90 111 0
-210 -90 -111 0
-210 90 111 0
211 212 214 -216 0
-211 216 0
-211 -214 0
-211 -212 0
212 335 -213 0
212 -335 213 0
-212 -335 -213 0
-212 335 213 0
213 91 -109 0
213 -91 109 0
-213 -91 -109 0
-213 91 109 0
214 336 -215 0
214 -336 215 0
-214 -336 -215 0
-214 336 215 0
215 92 -107 0
215 -92 107 0
-215 -92 -107 0
-215 92 107 0
216 217 219 -221 0
-216 221 0
-216 -219 0
-216 -217 0
217 337 -218 0
217 -337 218 0
-217 -337 -218 0
-217 337 218 0
218 93 -105 0
218 -93 105 0
-218 -93 -105 0
-218 93 105 0
219 338 -220 0
219 -338 220 0
-219 -338 -220 0
-219 338 220 0
220 94 -103 0
220 -94 103 0
-220 -94 -103 0
-220 94 103 0
221 222 224 227 0
-221 -222 0
-221 -227 0
-221 -224 0
222 339 -223 0
222 -339 223 0
-222 -339 -223 0
-222 339 223 0
223 95 -101 0
223 -95 101 0
-223 -95 -101 0
-223 95 101 0
224 341 -225 0
224 -341 225 0
-224 -341 -225 0
-224 341 225 0
225 -226 -100 0
225 226 100 0
-225 226 -100 0
-225 -226 100 0
226 247 248 0
-226 -247 0
-226 -248 0
227 340 -228 0
227 -340 228 0
-227 -340 -228 0
-227 340 228 0
228 96 -98 0
228 -96 98 0
-228 -96 -98 0
-228 96 98 0
229 312 -230 0
229 -312 230 0
-229 -312 -230 0
-229 312 230 0
230 68 -155 0
230 -68 155 0
-230 -68 -155 0
-230 68 155 0
231 227 232 229 -233 0
-231 233 0
-231 -229 0
-231 -227 0
-231 -232 0
232 5 -7 0
-232 -5 0
-232 7 0
233 219 222 224 -234 0
-233 234 0
-233 -224 0
-233 -219 0
-233 -222 0
234 214 217 -235 0
-234 235 0
-234 -217 0
-234 -214 0
235 209 212 -236 0
-235 236 0
-235 -212 0
-235 -209 0
236 204 207 -237 0
-236 237 0
-236 -207 0
-236 -204 0
237 199 202 -238 0
-237 238 0
-237 -202 0
-237 -199 0
238 194 197 -239 0
-238 239 0
-238 -197 0
-238 -194 0
239 189 192 -240 0
-239 240 0
-239 -192 0
-239 -189 0
240 184 187 -241 0
-240 241 0
-240 -187 0
-240 -184 0
241 180 182 -242 0
-241 242 0
-241 -182 0
-241 -180 0
242 175 177 -243 0
-242 243 0
-242 -177 0
-242 -175 0
243 170 172 -244 0
-243 244 0
-243 -172 0
-243 -170 0
244 162 165 167 -245 0
-244 245 0
-244 -167 0
-244 -162 0
-244 -165 0
245 246 158 160 0
-245 -246 0
-245 -160 0
-245 -158 0
246 -5 7 0
-246 5 0
-246 -7 0
342 0
2 -4 0
-2 4 0
3 -231 0
-3 231 0
3 0

